NAME : portcgen-29-4
COMMENT : portcgen N=29, seed=4
TYPE : TSP
DIMENSION : 29
EDGE_WEIGHT_TYPE : EUC_2D
NODE_COORD_SECTION
1 45814 -279973
2 -87093 14331
3 152120 -421650
4 66041 -158837
5 -149634 -92140
6 -95214 -184258
7 4820 23878
8 141902 -181140
9 130190 -237332
10 85212 165444
11 287528 307925
12 4845 12975
13 -281818 -177647
14 -167322 -47537
15 151219 -85176
16 -160835 -105926
17 218406 -103145
18 -160657 -91091
19 -9576 -214718
20 -277117 162344
21 30565 44150
22 106507 188200
23 -72343 -324723
24 348917 98697
25 -170840 -291455
26 -111920 -169427
27 -144896 268314
28 68637 -221219
29 181962 268754
